************************************************************************
file with basedata            : mm59_.bas
initial value random generator: 1223479006
************************************************************************
projects                      :  1
jobs (incl. supersource/sink ):  12
horizon                       :  73
RESOURCES
  - renewable                 :  2   R
  - nonrenewable              :  2   N
  - doubly constrained        :  0   D
************************************************************************
PROJECT INFORMATION:
pronr.  #jobs rel.date duedate tardcost  MPM-Time
    1     10      0       14        5       14
************************************************************************
PRECEDENCE RELATIONS:
jobnr.    #modes  #successors   successors
   0        1          3           1   2   3
   1        3          1           4
   2        3          2           4   5
   3        3          1           7
   4        3          3           8   9  10
   5        3          2           6   8
   6        3          1          10
   7        3          2           9  10
   8        3          1          11
   9        3          1          11
  10        3          1          11
  11        1          0        
************************************************************************
REQUESTS/DURATIONS:
jobnr. mode duration  R 1  R 2  R 3  R 4  E(W 1)
------------------------------------------------------------------------
  0      1     0       0    0    0    0     0
  1      1     1       9    8    0    8    25
  2      1     5       6    9    4    0    95
  3      1     1       8    4    6    0    18
  4      1     1       8    5   10    0    23
  5      1     1       2    6    4    0    12
  6      1     6       8    9    3    0    120
  7      1     1       7    9    9    0    25
  8      1     2       7    5    0    8    40
  9      1     2       9    4    0    4    34
 10      1     2       4    7    0   10    42
 11      1     0       0    0    0    0     0
************************************************************************
RESOURCEAVAILABILITIES:
  R 1
   120
************************************************************************
RESOURCE LIMITS:
jobnr.  l(R 1)  u(R 1)
------------------------------------------------------------------------
  0        0       0
  1       13      25
  2       10      19
  3        9      18
  4       12      23
  5        6      12
  6       11      20
  7       14      25
  8       11      20
  9        9      17
 10       11      21
 11        0       0
************************************************************************
SCENARIOS:
------------------------------------------------------------------------
RESOURCE k = 1
s = 1: (0, 20, 69, 19, 25, 8, 129, 19, 62, 41, 40, 0)
s = 2: (0, 29, 158, 23, 16, 9, 122, 30, 38, 35, 38, 0)
s = 3: (0, 17, 94, 17, 25, 8, 107, 26, 42, 34, 38, 0)
s = 4: (0, 21, 91, 13, 22, 10, 105, 36, 60, 27, 27, 0)
s = 5: (0, 29, 68, 16, 16, 11, 150, 22, 29, 43, 43, 0)
s = 6: (0, 32, 57, 14, 16, 16, 73, 17, 48, 39, 38, 0)
s = 7: (0, 37, 93, 11, 26, 13, 106, 31, 33, 44, 33, 0)
s = 8: (0, 19, 131, 20, 21, 12, 77, 14, 31, 27, 34, 0)
s = 9: (0, 25, 104, 14, 25, 13, 76, 41, 31, 24, 44, 0)
s = 10: (0, 22, 70, 17, 28, 13, 88, 16, 36, 63, 33, 0)
s = 11: (0, 17, 76, 25, 15, 14, 140, 31, 32, 22, 34, 0)
s = 12: (0, 26, 73, 17, 24, 12, 66, 25, 54, 50, 43, 0)
s = 13: (0, 24, 114, 22, 38, 8, 116, 19, 32, 23, 33, 0)
s = 14: (0, 39, 95, 25, 17, 12, 195, 37, 63, 46, 41, 0)
s = 15: (0, 21, 68, 19, 27, 9, 118, 35, 73, 38, 48, 0)
s = 16: (0, 28, 108, 13, 15, 11, 111, 20, 30, 50, 70, 0)
s = 17: (0, 44, 111, 11, 37, 12, 72, 16, 31, 28, 57, 0)
s = 18: (0, 32, 52, 21, 26, 13, 92, 33, 36, 29, 31, 0)
s = 19: (0, 19, 94, 19, 24, 8, 167, 17, 30, 31, 35, 0)
s = 20: (0, 19, 94, 20, 23, 15, 149, 20, 49, 30, 41, 0)
s = 21: (0, 36, 75, 15, 14, 8, 178, 16, 43, 41, 48, 0)
s = 22: (0, 27, 98, 14, 18, 12, 152, 20, 24, 55, 28, 0)
s = 23: (0, 31, 107, 12, 18, 12, 137, 16, 44, 44, 64, 0)
s = 24: (0, 23, 135, 15, 19, 9, 94, 15, 32, 37, 44, 0)
s = 25: (0, 43, 162, 14, 15, 9, 68, 28, 28, 33, 42, 0)
s = 26: (0, 15, 119, 15, 17, 13, 89, 28, 39, 46, 46, 0)
s = 27: (0, 21, 152, 20, 22, 7, 132, 17, 34, 24, 27, 0)
s = 28: (0, 17, 98, 16, 27, 10, 107, 22, 36, 35, 31, 0)
s = 29: (0, 17, 117, 22, 17, 13, 119, 28, 44, 28, 50, 0)
s = 30: (0, 25, 65, 24, 30, 7, 98, 24, 60, 47, 40, 0)
s = 31: (0, 25, 57, 18, 30, 19, 184, 31, 38, 30, 34, 0)
s = 32: (0, 19, 126, 27, 25, 11, 112, 30, 25, 43, 35, 0)
s = 33: (0, 20, 87, 30, 33, 15, 151, 44, 36, 48, 64, 0)
s = 34: (0, 39, 77, 19, 25, 15, 153, 29, 66, 45, 62, 0)
s = 35: (0, 25, 132, 27, 28, 20, 103, 22, 64, 33, 35, 0)
s = 36: (0, 34, 114, 18, 21, 8, 108, 19, 51, 33, 24, 0)
s = 37: (0, 40, 55, 27, 20, 12, 157, 35, 37, 37, 46, 0)
s = 38: (0, 25, 95, 20, 22, 13, 114, 35, 46, 27, 31, 0)
s = 39: (0, 33, 99, 16, 29, 10, 73, 18, 57, 51, 25, 0)
s = 40: (0, 40, 141, 18, 29, 8, 148, 25, 30, 29, 55, 0)
s = 41: (0, 21, 57, 12, 28, 10, 173, 28, 38, 28, 25, 0)
s = 42: (0, 25, 88, 20, 26, 12, 67, 16, 25, 23, 42, 0)
s = 43: (0, 14, 141, 20, 21, 10, 96, 26, 47, 49, 39, 0)
s = 44: (0, 27, 153, 15, 21, 9, 134, 49, 28, 26, 39, 0)
s = 45: (0, 30, 76, 16, 27, 9, 88, 31, 45, 31, 28, 0)
s = 46: (0, 22, 75, 16, 25, 8, 93, 26, 51, 32, 33, 0)
s = 47: (0, 19, 106, 14, 29, 15, 100, 27, 26, 49, 40, 0)
s = 48: (0, 24, 70, 13, 35, 7, 109, 19, 40, 24, 52, 0)
s = 49: (0, 30, 80, 20, 24, 15, 78, 24, 50, 34, 29, 0)
s = 50: (0, 27, 80, 17, 14, 10, 84, 22, 46, 44, 44, 0)
s = 51: (0, 29, 114, 29, 29, 10, 82, 36, 55, 54, 39, 0)
s = 52: (0, 24, 101, 21, 22, 9, 92, 25, 25, 23, 43, 0)
s = 53: (0, 17, 75, 15, 36, 12, 97, 18, 22, 25, 51, 0)
s = 54: (0, 25, 125, 12, 21, 12, 105, 21, 38, 53, 31, 0)
s = 55: (0, 18, 67, 15, 23, 11, 85, 21, 41, 36, 34, 0)
s = 56: (0, 25, 86, 12, 19, 10, 119, 41, 40, 25, 31, 0)
s = 57: (0, 23, 89, 15, 20, 12, 121, 34, 40, 45, 39, 0)
s = 58: (0, 19, 81, 13, 22, 9, 112, 25, 56, 28, 29, 0)
s = 59: (0, 35, 169, 13, 28, 9, 93, 20, 71, 41, 34, 0)
s = 60: (0, 21, 132, 16, 14, 15, 69, 18, 30, 39, 41, 0)
s = 61: (0, 32, 53, 23, 35, 15, 219, 32, 27, 27, 40, 0)
s = 62: (0, 34, 115, 17, 26, 15, 155, 30, 68, 22, 25, 0)
s = 63: (0, 31, 90, 15, 35, 20, 125, 18, 37, 22, 32, 0)
s = 64: (0, 17, 108, 16, 29, 16, 103, 22, 28, 20, 44, 0)
s = 65: (0, 25, 66, 17, 20, 15, 134, 24, 26, 27, 44, 0)
s = 66: (0, 30, 105, 32, 21, 8, 81, 20, 63, 45, 34, 0)
s = 67: (0, 19, 78, 15, 29, 16, 183, 19, 42, 35, 37, 0)
s = 68: (0, 27, 111, 28, 32, 15, 165, 33, 61, 33, 29, 0)
s = 69: (0, 32, 74, 17, 19, 8, 112, 23, 36, 28, 37, 0)
s = 70: (0, 17, 61, 13, 22, 10, 119, 16, 48, 36, 57, 0)
s = 71: (0, 29, 87, 15, 23, 12, 154, 14, 28, 36, 46, 0)
s = 72: (0, 27, 65, 23, 24, 12, 119, 34, 43, 27, 41, 0)
s = 73: (0, 18, 54, 12, 21, 9, 97, 35, 35, 38, 82, 0)
s = 74: (0, 34, 141, 17, 25, 12, 191, 27, 53, 29, 45, 0)
s = 75: (0, 17, 123, 18, 24, 9, 171, 34, 54, 36, 41, 0)
s = 76: (0, 29, 131, 12, 24, 8, 129, 26, 53, 40, 65, 0)
s = 77: (0, 19, 93, 13, 15, 13, 90, 20, 50, 37, 64, 0)
s = 78: (0, 14, 87, 14, 31, 14, 169, 18, 50, 33, 35, 0)
s = 79: (0, 28, 77, 13, 14, 12, 136, 26, 23, 43, 30, 0)
s = 80: (0, 30, 107, 12, 19, 16, 79, 22, 37, 34, 69, 0)
s = 81: (0, 20, 93, 17, 16, 23, 116, 24, 34, 40, 59, 0)
s = 82: (0, 30, 110, 12, 14, 10, 155, 24, 59, 40, 39, 0)
s = 83: (0, 38, 93, 18, 16, 16, 184, 34, 33, 38, 35, 0)
s = 84: (0, 26, 107, 18, 22, 7, 154, 29, 54, 26, 63, 0)
s = 85: (0, 20, 112, 25, 35, 16, 153, 17, 30, 45, 69, 0)
s = 86: (0, 24, 90, 20, 14, 12, 101, 17, 41, 48, 63, 0)
s = 87: (0, 40, 99, 18, 23, 12, 92, 19, 21, 46, 39, 0)
s = 88: (0, 36, 99, 13, 26, 15, 135, 19, 27, 41, 44, 0)
s = 89: (0, 21, 95, 11, 28, 17, 67, 25, 58, 36, 65, 0)
s = 90: (0, 24, 66, 26, 15, 17, 107, 23, 26, 37, 34, 0)
s = 91: (0, 20, 142, 20, 22, 8, 100, 31, 27, 42, 47, 0)
s = 92: (0, 21, 111, 18, 27, 13, 93, 15, 49, 49, 41, 0)
s = 93: (0, 33, 91, 29, 32, 11, 123, 26, 41, 39, 43, 0)
s = 94: (0, 18, 98, 23, 22, 12, 132, 27, 22, 24, 54, 0)
s = 95: (0, 23, 78, 16, 28, 12, 192, 24, 26, 48, 46, 0)
s = 96: (0, 28, 124, 15, 13, 13, 172, 27, 32, 28, 55, 0)
s = 97: (0, 33, 78, 29, 28, 13, 199, 22, 31, 52, 50, 0)
s = 98: (0, 33, 59, 11, 27, 15, 119, 26, 55, 27, 30, 0)
s = 99: (0, 28, 113, 20, 18, 11, 108, 29, 46, 20, 57, 0)
s = 100: (0, 26, 101, 14, 21, 9, 155, 24, 28, 33, 40, 0)
s = 101: (0, 31, 71, 15, 27, 22, 116, 29, 39, 31, 26, 0)
s = 102: (0, 32, 164, 26, 25, 13, 92, 22, 43, 43, 45, 0)
s = 103: (0, 27, 122, 12, 22, 11, 141, 41, 51, 48, 51, 0)
s = 104: (0, 18, 125, 16, 24, 9, 111, 19, 46, 36, 28, 0)
s = 105: (0, 20, 79, 13, 25, 8, 153, 21, 51, 33, 67, 0)
s = 106: (0, 26, 138, 18, 23, 8, 92, 18, 53, 23, 51, 0)
s = 107: (0, 35, 72, 23, 22, 9, 64, 14, 39, 20, 28, 0)
s = 108: (0, 20, 103, 17, 30, 8, 117, 25, 45, 47, 40, 0)
s = 109: (0, 22, 107, 18, 31, 10, 68, 23, 33, 23, 28, 0)
s = 110: (0, 29, 112, 17, 18, 14, 175, 28, 41, 44, 40, 0)
s = 111: (0, 24, 66, 24, 33, 13, 74, 23, 43, 30, 43, 0)
s = 112: (0, 29, 81, 21, 19, 15, 142, 42, 35, 45, 25, 0)
s = 113: (0, 16, 73, 15, 26, 12, 197, 21, 40, 31, 31, 0)
s = 114: (0, 18, 141, 11, 29, 11, 117, 24, 26, 25, 47, 0)
s = 115: (0, 30, 134, 20, 16, 16, 105, 16, 44, 27, 30, 0)
s = 116: (0, 27, 66, 17, 23, 18, 79, 24, 25, 44, 39, 0)
s = 117: (0, 29, 129, 14, 15, 8, 174, 30, 42, 42, 34, 0)
s = 118: (0, 19, 66, 14, 27, 12, 142, 35, 40, 44, 38, 0)
s = 119: (0, 23, 130, 12, 20, 8, 70, 29, 33, 47, 33, 0)
s = 120: (0, 29, 55, 19, 37, 12, 118, 23, 30, 28, 28, 0)
s = 121: (0, 37, 69, 13, 17, 18, 113, 16, 23, 33, 47, 0)
s = 122: (0, 28, 112, 21, 27, 18, 89, 17, 39, 34, 75, 0)
s = 123: (0, 39, 121, 21, 15, 9, 93, 40, 29, 27, 33, 0)
s = 124: (0, 38, 90, 16, 33, 14, 66, 32, 38, 49, 35, 0)
s = 125: (0, 28, 154, 13, 18, 20, 112, 20, 68, 24, 56, 0)
s = 126: (0, 29, 96, 15, 30, 13, 155, 36, 29, 42, 27, 0)
s = 127: (0, 26, 59, 20, 16, 12, 167, 25, 28, 33, 54, 0)
s = 128: (0, 35, 85, 22, 24, 16, 128, 19, 27, 38, 55, 0)
s = 129: (0, 15, 106, 18, 23, 16, 103, 24, 40, 49, 26, 0)
s = 130: (0, 22, 59, 20, 29, 9, 173, 21, 23, 39, 45, 0)
s = 131: (0, 35, 114, 19, 32, 9, 190, 31, 52, 45, 61, 0)
s = 132: (0, 36, 89, 20, 22, 16, 94, 21, 69, 31, 47, 0)
s = 133: (0, 30, 123, 18, 21, 17, 122, 16, 27, 40, 53, 0)
s = 134: (0, 27, 119, 20, 14, 18, 99, 21, 35, 31, 39, 0)
s = 135: (0, 20, 73, 17, 13, 9, 131, 27, 37, 37, 46, 0)
s = 136: (0, 35, 121, 28, 24, 11, 175, 23, 50, 36, 53, 0)
s = 137: (0, 37, 153, 23, 24, 12, 144, 19, 49, 26, 52, 0)
s = 138: (0, 33, 143, 29, 24, 10, 168, 28, 54, 52, 38, 0)
s = 139: (0, 27, 76, 17, 26, 10, 80, 21, 33, 26, 48, 0)
s = 140: (0, 42, 81, 20, 25, 9, 149, 37, 61, 26, 44, 0)
s = 141: (0, 22, 126, 11, 20, 10, 120, 13, 31, 29, 45, 0)
s = 142: (0, 31, 98, 16, 20, 13, 112, 38, 45, 30, 51, 0)
s = 143: (0, 24, 114, 20, 17, 12, 75, 20, 51, 26, 40, 0)
s = 144: (0, 27, 58, 21, 21, 8, 160, 15, 26, 26, 47, 0)
s = 145: (0, 25, 109, 18, 17, 17, 186, 17, 52, 25, 25, 0)
s = 146: (0, 34, 120, 24, 23, 13, 103, 23, 39, 55, 59, 0)
s = 147: (0, 19, 95, 19, 16, 14, 205, 25, 49, 22, 46, 0)
s = 148: (0, 17, 93, 18, 24, 10, 137, 18, 34, 30, 41, 0)
s = 149: (0, 21, 115, 11, 31, 9, 108, 38, 35, 43, 58, 0)
s = 150: (0, 38, 80, 25, 28, 17, 68, 24, 28, 28, 44, 0)
s = 151: (0, 40, 67, 23, 17, 16, 217, 22, 31, 39, 50, 0)
s = 152: (0, 32, 62, 21, 33, 12, 94, 41, 51, 48, 30, 0)
s = 153: (0, 22, 78, 35, 28, 11, 159, 39, 34, 28, 41, 0)
s = 154: (0, 34, 80, 14, 20, 10, 77, 23, 27, 22, 48, 0)
s = 155: (0, 35, 123, 22, 25, 10, 123, 29, 52, 31, 57, 0)
s = 156: (0, 27, 91, 21, 26, 16, 96, 36, 48, 37, 50, 0)
s = 157: (0, 20, 60, 15, 35, 15, 105, 23, 47, 50, 33, 0)
s = 158: (0, 25, 102, 19, 23, 10, 133, 40, 28, 36, 27, 0)
s = 159: (0, 23, 66, 22, 37, 8, 149, 24, 51, 31, 30, 0)
s = 160: (0, 27, 60, 19, 23, 15, 113, 30, 38, 36, 43, 0)
s = 161: (0, 19, 93, 16, 22, 10, 81, 29, 34, 29, 65, 0)
s = 162: (0, 26, 151, 30, 16, 13, 128, 31, 31, 54, 51, 0)
s = 163: (0, 31, 95, 19, 30, 11, 177, 37, 27, 40, 31, 0)
s = 164: (0, 28, 131, 15, 22, 12, 86, 15, 28, 35, 78, 0)
s = 165: (0, 35, 108, 11, 14, 12, 116, 26, 29, 48, 38, 0)
s = 166: (0, 19, 164, 15, 22, 13, 71, 22, 48, 50, 69, 0)
s = 167: (0, 24, 100, 27, 20, 13, 113, 25, 45, 37, 39, 0)
s = 168: (0, 16, 124, 13, 24, 13, 76, 33, 56, 44, 29, 0)
s = 169: (0, 27, 144, 14, 28, 13, 83, 27, 37, 30, 39, 0)
s = 170: (0, 27, 65, 16, 20, 9, 85, 41, 41, 34, 40, 0)
s = 171: (0, 17, 83, 12, 17, 7, 120, 22, 60, 27, 29, 0)
s = 172: (0, 16, 101, 14, 21, 14, 117, 30, 32, 25, 48, 0)
s = 173: (0, 28, 126, 11, 16, 9, 140, 22, 49, 37, 40, 0)
s = 174: (0, 20, 94, 21, 22, 13, 141, 34, 37, 45, 38, 0)
s = 175: (0, 16, 71, 32, 31, 12, 191, 20, 40, 42, 49, 0)
s = 176: (0, 27, 112, 20, 17, 18, 147, 20, 56, 20, 29, 0)
s = 177: (0, 30, 142, 24, 44, 9, 161, 21, 53, 22, 26, 0)
s = 178: (0, 27, 83, 13, 35, 7, 144, 28, 50, 38, 28, 0)
s = 179: (0, 32, 136, 19, 30, 9, 109, 26, 42, 20, 42, 0)
s = 180: (0, 26, 69, 17, 20, 21, 77, 35, 58, 25, 42, 0)
s = 181: (0, 23, 115, 18, 25, 18, 109, 30, 25, 49, 54, 0)
s = 182: (0, 27, 150, 15, 16, 11, 150, 18, 36, 44, 45, 0)
s = 183: (0, 20, 75, 19, 17, 10, 111, 27, 51, 23, 31, 0)
s = 184: (0, 32, 83, 23, 17, 22, 93, 42, 27, 44, 28, 0)
s = 185: (0, 20, 68, 15, 26, 10, 132, 39, 35, 43, 57, 0)
s = 186: (0, 29, 123, 30, 17, 8, 149, 35, 47, 23, 37, 0)
s = 187: (0, 40, 78, 28, 28, 9, 166, 21, 33, 26, 40, 0)
s = 188: (0, 43, 74, 21, 25, 17, 150, 42, 49, 31, 23, 0)
s = 189: (0, 30, 56, 16, 29, 8, 141, 40, 35, 21, 32, 0)
s = 190: (0, 16, 79, 16, 35, 13, 150, 30, 59, 30, 65, 0)
s = 191: (0, 34, 108, 21, 19, 11, 155, 35, 48, 38, 41, 0)
s = 192: (0, 25, 80, 13, 25, 17, 146, 17, 40, 40, 42, 0)
s = 193: (0, 18, 86, 28, 23, 22, 131, 34, 51, 43, 41, 0)
s = 194: (0, 14, 73, 20, 41, 10, 80, 30, 51, 33, 36, 0)
s = 195: (0, 27, 70, 11, 25, 11, 96, 29, 48, 51, 72, 0)
s = 196: (0, 28, 86, 13, 34, 8, 99, 34, 25, 31, 41, 0)
s = 197: (0, 20, 83, 21, 26, 14, 83, 24, 34, 20, 78, 0)
s = 198: (0, 24, 168, 17, 32, 13, 174, 14, 28, 54, 30, 0)
s = 199: (0, 35, 158, 21, 31, 13, 115, 21, 29, 30, 53, 0)
s = 200: (0, 35, 80, 19, 16, 9, 149, 22, 36, 50, 62, 0)
************************************************************************
ES/LS-VALUES:
jobnr.   ES(i)    LS(i)
------------------------------------------------------------------------
  0        0        0
  1        0       65
  2        0       47
  3        0       65
  4        8       67
  5        8       56
  6        9       58
  7        1       67
  8        9       69
  9        9       69
 10       19       69
 11       22       73
************************************************************************
BIG-M-VALUES:
M1 = 20, M2 = 219
************************************************************************
